(set-logic QF_S)
(declare-fun var0 () String)
(assert (str.in.re var0 (re.++ (re.* (re.* (str.to.re "0"))) (re.++ (re.* (re.+ (str.to.re "1"))) (re.++ (re.union (re.union (str.to.re "222") (str.to.re "33")) (re.union (str.to.re "44") (str.to.re "555"))) (re.++ (re.* (re.+ (str.to.re "666"))) (re.++ (re.+ (re.+ (str.to.re "777"))) (re.++ (re.+ (re.* (str.to.re "888"))) (re.++ (re.* (re.union (str.to.re "9") (str.to.re "aa"))) (re.++ (re.union (re.* (str.to.re "b")) (re.* (str.to.re "ccc"))) (re.++ (re.* (re.union (str.to.re "dd") (str.to.re "eee"))) (re.++ (re.+ (re.union (str.to.re "ff") (str.to.re "g"))) (re.++ (re.+ (re.union (str.to.re "hh") (str.to.re "ii"))) (re.++ (re.+ (re.+ (str.to.re "jj"))) (re.++ (re.* (re.+ (str.to.re "kk"))) (re.++ (re.+ (re.* (str.to.re "l"))) (re.++ (re.+ (re.union (str.to.re "mm") (str.to.re "n"))) (re.++ (re.+ (re.+ (str.to.re "o"))) (re.++ (re.+ (re.* (str.to.re "ppp"))) (re.++ (re.* (re.+ (str.to.re "qq"))) (re.++ (re.union (re.* (str.to.re "r")) (re.* (str.to.re "sss"))) (re.++ (re.union (re.+ (str.to.re "tt")) (re.+ (str.to.re "u"))) (re.++ (re.* (re.+ (str.to.re "vv"))) (re.++ (re.* (re.* (str.to.re "ww"))) (re.++ (re.* (re.* (str.to.re "xx"))) (re.++ (re.+ (re.+ (str.to.re "y"))) (re.++ (re.+ (re.+ (str.to.re "z"))) (re.++ (re.+ (re.* (str.to.re "A"))) (re.++ (re.* (re.* (str.to.re "BB"))) (re.++ (re.+ (re.union (str.to.re "C") (str.to.re "DDD"))) (re.++ (re.* (re.union (str.to.re "EE") (str.to.re "F"))) (re.++ (re.union (re.union (str.to.re "GG") (str.to.re "H")) (re.union (str.to.re "I") (str.to.re "JJ"))) (re.++ (re.union (re.* (str.to.re "KKK")) (re.* (str.to.re "L"))) (re.++ (re.union (re.+ (str.to.re "MMM")) (re.+ (str.to.re "NN"))) (re.++ (re.union (re.+ (str.to.re "OOO")) (re.+ (str.to.re "P"))) (re.++ (re.+ (re.* (str.to.re "Q"))) (re.++ (re.+ (re.+ (str.to.re "RR"))) (re.++ (re.union (re.* (str.to.re "SS")) (re.* (str.to.re "TTT"))) (re.++ (re.+ (re.* (str.to.re "U"))) (re.++ (re.union (re.* (str.to.re "VVV")) (re.* (str.to.re "WW"))) (re.++ (re.* (re.+ (str.to.re "X"))) (re.++ (re.* (re.* (str.to.re "YY"))) (re.++ (re.+ (re.* (str.to.re "ZZ"))) (re.++ (re.* (re.union (str.to.re "!!!") (str.to.re """"""""))) (re.++ (re.* (re.* (str.to.re "##"))) (re.++ (re.* (re.* (str.to.re "$"))) (re.++ (re.+ (re.* (str.to.re "%"))) (re.++ (re.union (re.* (str.to.re "&&&")) (re.* (str.to.re "''"))) (re.++ (re.union (re.union (str.to.re "(") (str.to.re "))")) (re.union (str.to.re "***") (str.to.re "++"))) (re.++ (re.+ (re.+ (str.to.re ",,,"))) (re.++ (re.union (re.union (str.to.re "--") (str.to.re "...")) (re.union (str.to.re "///") (str.to.re "::"))) (re.++ (re.* (re.* (str.to.re ";;;"))) (re.++ (re.* (re.* (str.to.re "<<"))) (re.++ (re.* (re.union (str.to.re "==") (str.to.re ">>"))) (re.++ (re.+ (re.* (str.to.re "???"))) (re.++ (re.+ (re.+ (str.to.re "@"))) (re.++ (re.union (re.+ (str.to.re "[[")) (re.+ (str.to.re "\\\\\\"))) (re.++ (re.* (re.* (str.to.re "]]"))) (re.++ (re.* (re.+ (str.to.re "^^^"))) (re.++ (re.+ (re.* (str.to.re "___"))) (re.++ (re.+ (re.* (str.to.re "```"))) (re.++ (re.union (re.union (str.to.re "{{{") (str.to.re "||")) (re.union (str.to.re "}}}") (str.to.re "~"))) (re.++ (re.+ (re.union (str.to.re "0") (str.to.re "111"))) (re.++ (re.* (re.+ (str.to.re "22"))) (re.++ (re.+ (re.union (str.to.re "33") (str.to.re "4"))) (re.++ (re.union (re.+ (str.to.re "555")) (re.+ (str.to.re "666"))) (re.++ (re.* (re.union (str.to.re "77") (str.to.re "88"))) (re.++ (re.* (re.+ (str.to.re "9"))) (re.++ (re.union (re.* (str.to.re "a")) (re.* (str.to.re "b"))) (re.++ (re.* (re.+ (str.to.re "cc"))) (re.++ (re.+ (re.union (str.to.re "ddd") (str.to.re "e"))) (re.++ (re.union (re.+ (str.to.re "fff")) (re.+ (str.to.re "ggg"))) (re.++ (re.* (re.* (str.to.re "hh"))) (re.++ (re.* (re.union (str.to.re "ii") (str.to.re "jj"))) (re.++ (re.+ (re.union (str.to.re "kkk") (str.to.re "l"))) (re.++ (re.+ (re.* (str.to.re "mmm"))) (re.++ (re.+ (re.+ (str.to.re "n"))) (re.* (re.+ (str.to.re "o"))))))))))))))))))))))))))))))))))))))))))))))))))))))))))))))))))))))))))))))))
(assert (not (str.in.re var0 (re.++ (re.+ (re.* (str.to.re "0"))) (re.++ (re.* (re.union (str.to.re "1") (str.to.re "22"))) (re.++ (re.* (re.union (str.to.re "33") (str.to.re "4"))) (re.++ (re.union (re.union (str.to.re "5") (str.to.re "666")) (re.union (str.to.re "7") (str.to.re "8"))) (re.++ (re.* (re.* (str.to.re "999"))) (re.++ (re.* (re.union (str.to.re "aaa") (str.to.re "bbb"))) (re.++ (re.+ (re.* (str.to.re "cc"))) (re.++ (re.union (re.* (str.to.re "d")) (re.* (str.to.re "ee"))) (re.++ (re.* (re.+ (str.to.re "ff"))) (re.++ (re.+ (re.* (str.to.re "gg"))) (re.++ (re.union (re.+ (str.to.re "hhh")) (re.+ (str.to.re "iii"))) (re.++ (re.union (re.union (str.to.re "jjj") (str.to.re "kkk")) (re.union (str.to.re "lll") (str.to.re "m"))) (re.++ (re.union (re.+ (str.to.re "nn")) (re.+ (str.to.re "oo"))) (re.++ (re.* (re.+ (str.to.re "pp"))) (re.++ (re.* (re.union (str.to.re "qq") (str.to.re "r"))) (re.++ (re.* (re.+ (str.to.re "s"))) (re.++ (re.+ (re.union (str.to.re "t") (str.to.re "uu"))) (re.++ (re.union (re.union (str.to.re "vvv") (str.to.re "www")) (re.union (str.to.re "xxx") (str.to.re "yyy"))) (re.++ (re.union (re.union (str.to.re "zz") (str.to.re "AA")) (re.union (str.to.re "B") (str.to.re "C"))) (re.++ (re.union (re.* (str.to.re "DD")) (re.* (str.to.re "EE"))) (re.++ (re.+ (re.+ (str.to.re "FF"))) (re.++ (re.* (re.union (str.to.re "G") (str.to.re "H"))) (re.++ (re.+ (re.union (str.to.re "II") (str.to.re "JJJ"))) (re.++ (re.* (re.* (str.to.re "KKK"))) (re.++ (re.union (re.+ (str.to.re "LLL")) (re.+ (str.to.re "MMM"))) (re.++ (re.+ (re.+ (str.to.re "NNN"))) (re.++ (re.* (re.+ (str.to.re "OOO"))) (re.++ (re.+ (re.union (str.to.re "PPP") (str.to.re "QQ"))) (re.++ (re.* (re.union (str.to.re "RRR") (str.to.re "SSS"))) (re.++ (re.+ (re.union (str.to.re "TTT") (str.to.re "U"))) (re.++ (re.+ (re.+ (str.to.re "VV"))) (re.++ (re.+ (re.* (str.to.re "WW"))) (re.++ (re.+ (re.union (str.to.re "XX") (str.to.re "YYY"))) (re.++ (re.union (re.+ (str.to.re "ZZZ")) (re.+ (str.to.re "!!"))) (re.++ (re.union (re.* (str.to.re """""")) (re.* (str.to.re "##"))) (re.++ (re.+ (re.* (str.to.re "$$$"))) (re.++ (re.union (re.union (str.to.re "%%%") (str.to.re "&&&")) (re.union (str.to.re "''") (str.to.re "((("))) (re.++ (re.union (re.union (str.to.re "))") (str.to.re "***")) (re.union (str.to.re "+") (str.to.re ",,,"))) (re.++ (re.union (re.+ (str.to.re "--")) (re.+ (str.to.re "..."))) (re.++ (re.union (re.+ (str.to.re "///")) (re.+ (str.to.re ":"))) (re.++ (re.union (re.* (str.to.re ";;;")) (re.* (str.to.re "<<"))) (re.++ (re.* (re.* (str.to.re "=="))) (re.++ (re.+ (re.+ (str.to.re ">"))) (re.++ (re.union (re.+ (str.to.re "?")) (re.+ (str.to.re "@@"))) (re.++ (re.+ (re.+ (str.to.re "[["))) (re.++ (re.+ (re.union (str.to.re "\\\\") (str.to.re "]]]"))) (re.++ (re.+ (re.union (str.to.re "^^^") (str.to.re "___"))) (re.++ (re.union (re.union (str.to.re "``") (str.to.re "{")) (re.union (str.to.re "||") (str.to.re "}}"))) (re.++ (re.union (re.+ (str.to.re "~~~")) (re.+ (str.to.re "0"))) (re.++ (re.* (re.+ (str.to.re "11"))) (re.++ (re.union (re.* (str.to.re "22")) (re.* (str.to.re "333"))) (re.++ (re.* (re.+ (str.to.re "4"))) (re.++ (re.union (re.union (str.to.re "55") (str.to.re "66")) (re.union (str.to.re "7") (str.to.re "888"))) (re.++ (re.* (re.+ (str.to.re "9"))) (re.++ (re.* (re.* (str.to.re "aa"))) (re.++ (re.+ (re.+ (str.to.re "b"))) (re.++ (re.+ (re.* (str.to.re "ccc"))) (re.++ (re.+ (re.union (str.to.re "ddd") (str.to.re "eee"))) (re.++ (re.* (re.+ (str.to.re "ff"))) (re.++ (re.* (re.+ (str.to.re "ggg"))) (re.++ (re.* (re.+ (str.to.re "h"))) (re.++ (re.+ (re.+ (str.to.re "iii"))) (re.++ (re.+ (re.union (str.to.re "j") (str.to.re "kkk"))) (re.++ (re.union (re.union (str.to.re "ll") (str.to.re "mmm")) (re.union (str.to.re "nn") (str.to.re "oo"))) (re.++ (re.+ (re.union (str.to.re "pp") (str.to.re "qqq"))) (re.++ (re.+ (re.* (str.to.re "rr"))) (re.++ (re.union (re.* (str.to.re "s")) (re.* (str.to.re "t"))) (re.++ (re.+ (re.* (str.to.re "u"))) (re.++ (re.+ (re.union (str.to.re "vv") (str.to.re "w"))) (re.++ (re.union (re.* (str.to.re "xx")) (re.* (str.to.re "yyy"))) (re.++ (re.* (re.* (str.to.re "zz"))) (re.++ (re.union (re.union (str.to.re "AAA") (str.to.re "BB")) (re.union (str.to.re "CCC") (str.to.re "DD"))) (re.++ (re.* (re.+ (str.to.re "EE"))) (re.++ (re.+ (re.union (str.to.re "FF") (str.to.re "GGG"))) (re.++ (re.* (re.+ (str.to.re "HHH"))) (re.* (re.+ (str.to.re "I")))))))))))))))))))))))))))))))))))))))))))))))))))))))))))))))))))))))))))))))))
(check-sat)